NAME           C:\Bruker\Hvattum\knapsack\Problems\class4\100-10-20.mps
ROWS
 N  OBJ
 L  CONSTR1
 L  CONSTR2
 L  CONSTR3
 L  CONSTR4
 L  CONSTR5
 L  CONSTR6
 L  CONSTR7
 L  CONSTR8
 L  CONSTR9
 L  CONSTR10
COLUMNS
    INT0001   'MARKER'  'INTORG'
    X1        OBJ       722
    X1        CONSTR1   945
    X1        CONSTR2   67
    X1        CONSTR3   796
    X1        CONSTR4   121
    X1        CONSTR5   524
    X1        CONSTR6   905
    X1        CONSTR7   133
    X1        CONSTR8   171
    X1        CONSTR9   741
    X1        CONSTR10  859
    X2        OBJ       495
    X2        CONSTR1   309
    X2        CONSTR2   148
    X2        CONSTR3   104
    X2        CONSTR4   494
    X2        CONSTR5   814
    X2        CONSTR6   125
    X2        CONSTR7   306
    X2        CONSTR8   706
    X2        CONSTR9   692
    X2        CONSTR10  3
    X3        OBJ       542
    X3        CONSTR1   192
    X3        CONSTR2   506
    X3        CONSTR3   624
    X3        CONSTR4   110
    X3        CONSTR5   921
    X3        CONSTR6   709
    X3        CONSTR7   275
    X3        CONSTR8   39
    X3        CONSTR9   348
    X3        CONSTR10  175
    X4        OBJ       575
    X4        CONSTR1   634
    X4        CONSTR2   220
    X4        CONSTR3   165
    X4        CONSTR4   551
    X4        CONSTR5   756
    X4        CONSTR6   171
    X4        CONSTR7   719
    X4        CONSTR8   452
    X4        CONSTR9   584
    X4        CONSTR10  953
    X5        OBJ       912
    X5        CONSTR1   450
    X5        CONSTR2   512
    X5        CONSTR3   793
    X5        CONSTR4   979
    X5        CONSTR5   337
    X5        CONSTR6   182
    X5        CONSTR7   906
    X5        CONSTR8   647
    X5        CONSTR9   857
    X5        CONSTR10  232
    X6        OBJ       671
    X6        CONSTR1   471
    X6        CONSTR2   334
    X6        CONSTR3   320
    X6        CONSTR4   435
    X6        CONSTR5   737
    X6        CONSTR6   456
    X6        CONSTR7   153
    X6        CONSTR8   683
    X6        CONSTR9   135
    X6        CONSTR10  376
    X7        OBJ       894
    X7        CONSTR1   257
    X7        CONSTR2   446
    X7        CONSTR3   594
    X7        CONSTR4   731
    X7        CONSTR5   906
    X7        CONSTR6   173
    X7        CONSTR7   776
    X7        CONSTR8   754
    X7        CONSTR9   975
    X7        CONSTR10  658
    X8        OBJ       904
    X8        CONSTR1   725
    X8        CONSTR2   252
    X8        CONSTR3   357
    X8        CONSTR4   494
    X8        CONSTR5   971
    X8        CONSTR6   616
    X8        CONSTR7   332
    X8        CONSTR8   597
    X8        CONSTR9   719
    X8        CONSTR10  995
    X9        OBJ       845
    X9        CONSTR1   230
    X9        CONSTR2   998
    X9        CONSTR3   962
    X9        CONSTR4   652
    X9        CONSTR5   797
    X9        CONSTR6   155
    X9        CONSTR7   197
    X9        CONSTR8   647
    X9        CONSTR9   254
    X9        CONSTR10  881
    X10       OBJ       469
    X10       CONSTR1   866
    X10       CONSTR2   655
    X10       CONSTR3   43
    X10       CONSTR4   399
    X10       CONSTR5   54
    X10       CONSTR6   137
    X10       CONSTR7   9
    X10       CONSTR8   113
    X10       CONSTR9   64
    X10       CONSTR10  272
    X11       OBJ       661
    X11       CONSTR1   965
    X11       CONSTR2   67
    X11       CONSTR3   405
    X11       CONSTR4   818
    X11       CONSTR5   294
    X11       CONSTR6   794
    X11       CONSTR7   309
    X11       CONSTR8   71
    X11       CONSTR9   682
    X11       CONSTR10  609
    X12       OBJ       672
    X12       CONSTR1   554
    X12       CONSTR2   424
    X12       CONSTR3   187
    X12       CONSTR4   215
    X12       CONSTR5   907
    X12       CONSTR6   437
    X12       CONSTR7   403
    X12       CONSTR8   732
    X12       CONSTR9   456
    X12       CONSTR10  837
    X13       OBJ       709
    X13       CONSTR1   264
    X13       CONSTR2   986
    X13       CONSTR3   75
    X13       CONSTR4   858
    X13       CONSTR5   717
    X13       CONSTR6   680
    X13       CONSTR7   877
    X13       CONSTR8   534
    X13       CONSTR9   650
    X13       CONSTR10  697
    X14       OBJ       862
    X14       CONSTR1   330
    X14       CONSTR2   326
    X14       CONSTR3   951
    X14       CONSTR4   318
    X14       CONSTR5   776
    X14       CONSTR6   759
    X14       CONSTR7   984
    X14       CONSTR8   885
    X14       CONSTR9   497
    X14       CONSTR10  686
    X15       OBJ       777
    X15       CONSTR1   458
    X15       CONSTR2   776
    X15       CONSTR3   597
    X15       CONSTR4   61
    X15       CONSTR5   277
    X15       CONSTR6   139
    X15       CONSTR7   254
    X15       CONSTR8   133
    X15       CONSTR9   559
    X15       CONSTR10  214
    X16       OBJ       649
    X16       CONSTR1   617
    X16       CONSTR2   110
    X16       CONSTR3   422
    X16       CONSTR4   40
    X16       CONSTR5   592
    X16       CONSTR6   273
    X16       CONSTR7   392
    X16       CONSTR8   77
    X16       CONSTR9   737
    X16       CONSTR10  854
    X17       OBJ       526
    X17       CONSTR1   250
    X17       CONSTR2   973
    X17       CONSTR3   399
    X17       CONSTR4   466
    X17       CONSTR5   536
    X17       CONSTR6   427
    X17       CONSTR7   33
    X17       CONSTR8   896
    X17       CONSTR9   367
    X17       CONSTR10  79
    X18       OBJ       536
    X18       CONSTR1   524
    X18       CONSTR2   97
    X18       CONSTR3   246
    X18       CONSTR4   127
    X18       CONSTR5   35
    X18       CONSTR6   894
    X18       CONSTR7   622
    X18       CONSTR8   87
    X18       CONSTR9   951
    X18       CONSTR10  760
    X19       OBJ       767
    X19       CONSTR1   171
    X19       CONSTR2   580
    X19       CONSTR3   466
    X19       CONSTR4   58
    X19       CONSTR5   870
    X19       CONSTR6   429
    X19       CONSTR7   145
    X19       CONSTR8   706
    X19       CONSTR9   463
    X19       CONSTR10  87
    X20       OBJ       829
    X20       CONSTR1   356
    X20       CONSTR2   392
    X20       CONSTR3   664
    X20       CONSTR4   597
    X20       CONSTR5   375
    X20       CONSTR6   844
    X20       CONSTR7   351
    X20       CONSTR8   794
    X20       CONSTR9   947
    X20       CONSTR10  630
    X21       OBJ       379
    X21       CONSTR1   19
    X21       CONSTR2   674
    X21       CONSTR3   40
    X21       CONSTR4   197
    X21       CONSTR5   552
    X21       CONSTR6   398
    X21       CONSTR7   300
    X21       CONSTR8   181
    X21       CONSTR9   73
    X21       CONSTR10  418
    X22       OBJ       555
    X22       CONSTR1   781
    X22       CONSTR2   159
    X22       CONSTR3   646
    X22       CONSTR4   494
    X22       CONSTR5   226
    X22       CONSTR6   845
    X22       CONSTR7   321
    X22       CONSTR8   290
    X22       CONSTR9   897
    X22       CONSTR10  121
    X23       OBJ       594
    X23       CONSTR1   677
    X23       CONSTR2   461
    X23       CONSTR3   848
    X23       CONSTR4   693
    X23       CONSTR5   146
    X23       CONSTR6   119
    X23       CONSTR7   715
    X23       CONSTR8   360
    X23       CONSTR9   886
    X23       CONSTR10  458
    X24       OBJ       860
    X24       CONSTR1   134
    X24       CONSTR2   946
    X24       CONSTR3   227
    X24       CONSTR4   934
    X24       CONSTR5   439
    X24       CONSTR6   673
    X24       CONSTR7   976
    X24       CONSTR8   731
    X24       CONSTR9   268
    X24       CONSTR10  109
    X25       OBJ       752
    X25       CONSTR1   164
    X25       CONSTR2   687
    X25       CONSTR3   550
    X25       CONSTR4   349
    X25       CONSTR5   735
    X25       CONSTR6   774
    X25       CONSTR7   572
    X25       CONSTR8   239
    X25       CONSTR9   951
    X25       CONSTR10  952
    X26       OBJ       680
    X26       CONSTR1   394
    X26       CONSTR2   493
    X26       CONSTR3   40
    X26       CONSTR4   459
    X26       CONSTR5   368
    X26       CONSTR6   647
    X26       CONSTR7   776
    X26       CONSTR8   580
    X26       CONSTR9   643
    X26       CONSTR10  92
    X27       OBJ       909
    X27       CONSTR1   31
    X27       CONSTR2   7
    X27       CONSTR3   761
    X27       CONSTR4   606
    X27       CONSTR5   720
    X27       CONSTR6   201
    X27       CONSTR7   122
    X27       CONSTR8   632
    X27       CONSTR9   648
    X27       CONSTR10  741
    X28       OBJ       436
    X28       CONSTR1   951
    X28       CONSTR2   2
    X28       CONSTR3   70
    X28       CONSTR4   274
    X28       CONSTR5   720
    X28       CONSTR6   300
    X28       CONSTR7   561
    X28       CONSTR8   23
    X28       CONSTR9   349
    X28       CONSTR10  7
    X29       OBJ       924
    X29       CONSTR1   497
    X29       CONSTR2   636
    X29       CONSTR3   681
    X29       CONSTR4   298
    X29       CONSTR5   373
    X29       CONSTR6   819
    X29       CONSTR7   24
    X29       CONSTR8   403
    X29       CONSTR9   660
    X29       CONSTR10  751
    X30       OBJ       785
    X30       CONSTR1   460
    X30       CONSTR2   201
    X30       CONSTR3   779
    X30       CONSTR4   96
    X30       CONSTR5   912
    X30       CONSTR6   729
    X30       CONSTR7   665
    X30       CONSTR8   591
    X30       CONSTR9   30
    X30       CONSTR10  903
    X31       OBJ       424
    X31       CONSTR1   239
    X31       CONSTR2   488
    X31       CONSTR3   122
    X31       CONSTR4   107
    X31       CONSTR5   123
    X31       CONSTR6   460
    X31       CONSTR7   742
    X31       CONSTR8   780
    X31       CONSTR9   169
    X31       CONSTR10  217
    X32       OBJ       850
    X32       CONSTR1   883
    X32       CONSTR2   957
    X32       CONSTR3   884
    X32       CONSTR4   70
    X32       CONSTR5   453
    X32       CONSTR6   450
    X32       CONSTR7   844
    X32       CONSTR8   184
    X32       CONSTR9   22
    X32       CONSTR10  449
    X33       OBJ       1030
    X33       CONSTR1   719
    X33       CONSTR2   485
    X33       CONSTR3   103
    X33       CONSTR4   154
    X33       CONSTR5   499
    X33       CONSTR6   718
    X33       CONSTR7   877
    X33       CONSTR8   777
    X33       CONSTR9   994
    X33       CONSTR10  992
    X34       OBJ       615
    X34       CONSTR1   449
    X34       CONSTR2   768
    X34       CONSTR3   950
    X34       CONSTR4   902
    X34       CONSTR5   93
    X34       CONSTR6   944
    X34       CONSTR7   131
    X34       CONSTR8   697
    X34       CONSTR9   501
    X34       CONSTR10  44
    X35       OBJ       672
    X35       CONSTR1   788
    X35       CONSTR2   117
    X35       CONSTR3   704
    X35       CONSTR4   555
    X35       CONSTR5   886
    X35       CONSTR6   47
    X35       CONSTR7   494
    X35       CONSTR8   206
    X35       CONSTR9   807
    X35       CONSTR10  677
    X36       OBJ       892
    X36       CONSTR1   438
    X36       CONSTR2   86
    X36       CONSTR3   659
    X36       CONSTR4   99
    X36       CONSTR5   472
    X36       CONSTR6   125
    X36       CONSTR7   933
    X36       CONSTR8   719
    X36       CONSTR9   403
    X36       CONSTR10  362
    X37       OBJ       525
    X37       CONSTR1   73
    X37       CONSTR2   552
    X37       CONSTR3   549
    X37       CONSTR4   36
    X37       CONSTR5   679
    X37       CONSTR6   470
    X37       CONSTR7   399
    X37       CONSTR8   355
    X37       CONSTR9   195
    X37       CONSTR10  46
    X38       OBJ       793
    X38       CONSTR1   948
    X38       CONSTR2   632
    X38       CONSTR3   799
    X38       CONSTR4   524
    X38       CONSTR5   73
    X38       CONSTR6   984
    X38       CONSTR7   635
    X38       CONSTR8   619
    X38       CONSTR9   88
    X38       CONSTR10  726
    X39       OBJ       925
    X39       CONSTR1   967
    X39       CONSTR2   199
    X39       CONSTR3   521
    X39       CONSTR4   104
    X39       CONSTR5   490
    X39       CONSTR6   854
    X39       CONSTR7   828
    X39       CONSTR8   233
    X39       CONSTR9   288
    X39       CONSTR10  185
    X40       OBJ       814
    X40       CONSTR1   367
    X40       CONSTR2   709
    X40       CONSTR3   183
    X40       CONSTR4   827
    X40       CONSTR5   698
    X40       CONSTR6   509
    X40       CONSTR7   770
    X40       CONSTR8   709
    X40       CONSTR9   743
    X40       CONSTR10  969
    X41       OBJ       522
    X41       CONSTR1   803
    X41       CONSTR2   525
    X41       CONSTR3   614
    X41       CONSTR4   339
    X41       CONSTR5   197
    X41       CONSTR6   232
    X41       CONSTR7   24
    X41       CONSTR8   39
    X41       CONSTR9   552
    X41       CONSTR10  306
    X42       OBJ       755
    X42       CONSTR1   167
    X42       CONSTR2   724
    X42       CONSTR3   230
    X42       CONSTR4   716
    X42       CONSTR5   654
    X42       CONSTR6   484
    X42       CONSTR7   95
    X42       CONSTR8   683
    X42       CONSTR9   505
    X42       CONSTR10  120
    X43       OBJ       845
    X43       CONSTR1   9
    X43       CONSTR2   619
    X43       CONSTR3   618
    X43       CONSTR4   897
    X43       CONSTR5   725
    X43       CONSTR6   123
    X43       CONSTR7   64
    X43       CONSTR8   307
    X43       CONSTR9   275
    X43       CONSTR10  185
    X44       OBJ       1010
    X44       CONSTR1   111
    X44       CONSTR2   553
    X44       CONSTR3   306
    X44       CONSTR4   906
    X44       CONSTR5   951
    X44       CONSTR6   749
    X44       CONSTR7   928
    X44       CONSTR8   397
    X44       CONSTR9   842
    X44       CONSTR10  611
    X45       OBJ       554
    X45       CONSTR1   659
    X45       CONSTR2   872
    X45       CONSTR3   435
    X45       CONSTR4   763
    X45       CONSTR5   514
    X45       CONSTR6   881
    X45       CONSTR7   306
    X45       CONSTR8   13
    X45       CONSTR9   110
    X45       CONSTR10  275
    X46       OBJ       622
    X46       CONSTR1   198
    X46       CONSTR2   507
    X46       CONSTR3   329
    X46       CONSTR4   430
    X46       CONSTR5   358
    X46       CONSTR6   322
    X46       CONSTR7   563
    X46       CONSTR8   210
    X46       CONSTR9   792
    X46       CONSTR10  53
    X47       OBJ       619
    X47       CONSTR1   331
    X47       CONSTR2   196
    X47       CONSTR3   972
    X47       CONSTR4   770
    X47       CONSTR5   827
    X47       CONSTR6   826
    X47       CONSTR7   77
    X47       CONSTR8   455
    X47       CONSTR9   480
    X47       CONSTR10  69
    X48       OBJ       1118
    X48       CONSTR1   336
    X48       CONSTR2   293
    X48       CONSTR3   837
    X48       CONSTR4   660
    X48       CONSTR5   515
    X48       CONSTR6   747
    X48       CONSTR7   985
    X48       CONSTR8   866
    X48       CONSTR9   564
    X48       CONSTR10  385
    X49       OBJ       803
    X49       CONSTR1   67
    X49       CONSTR2   311
    X49       CONSTR3   96
    X49       CONSTR4   93
    X49       CONSTR5   264
    X49       CONSTR6   693
    X49       CONSTR7   980
    X49       CONSTR8   383
    X49       CONSTR9   899
    X49       CONSTR10  544
    X50       OBJ       704
    X50       CONSTR1   899
    X50       CONSTR2   144
    X50       CONSTR3   150
    X50       CONSTR4   1000
    X50       CONSTR5   475
    X50       CONSTR6   330
    X50       CONSTR7   695
    X50       CONSTR8   741
    X50       CONSTR9   175
    X50       CONSTR10  655
    X51       OBJ       462
    X51       CONSTR1   567
    X51       CONSTR2   65
    X51       CONSTR3   77
    X51       CONSTR4   325
    X51       CONSTR5   617
    X51       CONSTR6   54
    X51       CONSTR7   797
    X51       CONSTR8   948
    X51       CONSTR9   287
    X51       CONSTR10  35
    X52       OBJ       495
    X52       CONSTR1   301
    X52       CONSTR2   252
    X52       CONSTR3   91
    X52       CONSTR4   361
    X52       CONSTR5   447
    X52       CONSTR6   149
    X52       CONSTR7   184
    X52       CONSTR8   587
    X52       CONSTR9   695
    X52       CONSTR10  139
    X53       OBJ       889
    X53       CONSTR1   79
    X53       CONSTR2   276
    X53       CONSTR3   123
    X53       CONSTR4   427
    X53       CONSTR5   664
    X53       CONSTR6   462
    X53       CONSTR7   247
    X53       CONSTR8   564
    X53       CONSTR9   475
    X53       CONSTR10  710
    X54       OBJ       633
    X54       CONSTR1   256
    X54       CONSTR2   439
    X54       CONSTR3   554
    X54       CONSTR4   284
    X54       CONSTR5   286
    X54       CONSTR6   65
    X54       CONSTR7   237
    X54       CONSTR8   812
    X54       CONSTR9   197
    X54       CONSTR10  720
    X55       OBJ       663
    X55       CONSTR1   642
    X55       CONSTR2   534
    X55       CONSTR3   112
    X55       CONSTR4   492
    X55       CONSTR5   342
    X55       CONSTR6   102
    X55       CONSTR7   342
    X55       CONSTR8   968
    X55       CONSTR9   225
    X55       CONSTR10  772
    X56       OBJ       953
    X56       CONSTR1   958
    X56       CONSTR2   828
    X56       CONSTR3   330
    X56       CONSTR4   667
    X56       CONSTR5   505
    X56       CONSTR6   532
    X56       CONSTR7   912
    X56       CONSTR8   713
    X56       CONSTR9   102
    X56       CONSTR10  472
    X57       OBJ       562
    X57       CONSTR1   374
    X57       CONSTR2   290
    X57       CONSTR3   851
    X57       CONSTR4   754
    X57       CONSTR5   923
    X57       CONSTR6   124
    X57       CONSTR7   293
    X57       CONSTR8   755
    X57       CONSTR9   291
    X57       CONSTR10  176
    X58       OBJ       806
    X58       CONSTR1   705
    X58       CONSTR2   868
    X58       CONSTR3   492
    X58       CONSTR4   136
    X58       CONSTR5   976
    X58       CONSTR6   882
    X58       CONSTR7   572
    X58       CONSTR8   284
    X58       CONSTR9   858
    X58       CONSTR10  594
    X59       OBJ       727
    X59       CONSTR1   830
    X59       CONSTR2   563
    X59       CONSTR3   4
    X59       CONSTR4   622
    X59       CONSTR5   968
    X59       CONSTR6   756
    X59       CONSTR7   497
    X59       CONSTR8   778
    X59       CONSTR9   704
    X59       CONSTR10  30
    X60       OBJ       604
    X60       CONSTR1   816
    X60       CONSTR2   435
    X60       CONSTR3   640
    X60       CONSTR4   412
    X60       CONSTR5   775
    X60       CONSTR6   50
    X60       CONSTR7   975
    X60       CONSTR8   325
    X60       CONSTR9   639
    X60       CONSTR10  416
    X61       OBJ       705
    X61       CONSTR1   427
    X61       CONSTR2   703
    X61       CONSTR3   572
    X61       CONSTR4   210
    X61       CONSTR5   742
    X61       CONSTR6   727
    X61       CONSTR7   342
    X61       CONSTR8   927
    X61       CONSTR9   978
    X61       CONSTR10  265
    X62       OBJ       831
    X62       CONSTR1   421
    X62       CONSTR2   395
    X62       CONSTR3   984
    X62       CONSTR4   172
    X62       CONSTR5   514
    X62       CONSTR6   151
    X62       CONSTR7   230
    X62       CONSTR8   317
    X62       CONSTR9   535
    X62       CONSTR10  959
    X63       OBJ       850
    X63       CONSTR1   705
    X63       CONSTR2   271
    X63       CONSTR3   293
    X63       CONSTR4   189
    X63       CONSTR5   704
    X63       CONSTR6   523
    X63       CONSTR7   894
    X63       CONSTR8   354
    X63       CONSTR9   975
    X63       CONSTR10  951
    X64       OBJ       973
    X64       CONSTR1   670
    X64       CONSTR2   421
    X64       CONSTR3   670
    X64       CONSTR4   832
    X64       CONSTR5   953
    X64       CONSTR6   74
    X64       CONSTR7   718
    X64       CONSTR8   785
    X64       CONSTR9   154
    X64       CONSTR10  783
    X65       OBJ       632
    X65       CONSTR1   72
    X65       CONSTR2   566
    X65       CONSTR3   700
    X65       CONSTR4   207
    X65       CONSTR5   265
    X65       CONSTR6   964
    X65       CONSTR7   82
    X65       CONSTR8   127
    X65       CONSTR9   923
    X65       CONSTR10  291
    X66       OBJ       638
    X66       CONSTR1   609
    X66       CONSTR2   639
    X66       CONSTR3   109
    X66       CONSTR4   838
    X66       CONSTR5   260
    X66       CONSTR6   978
    X66       CONSTR7   569
    X66       CONSTR8   99
    X66       CONSTR9   531
    X66       CONSTR10  167
    X67       OBJ       705
    X67       CONSTR1   375
    X67       CONSTR2   331
    X67       CONSTR3   356
    X67       CONSTR4   345
    X67       CONSTR5   421
    X67       CONSTR6   958
    X67       CONSTR7   994
    X67       CONSTR8   193
    X67       CONSTR9   961
    X67       CONSTR10  20
    X68       OBJ       692
    X68       CONSTR1   730
    X68       CONSTR2   824
    X68       CONSTR3   519
    X68       CONSTR4   550
    X68       CONSTR5   497
    X68       CONSTR6   172
    X68       CONSTR7   110
    X68       CONSTR8   221
    X68       CONSTR9   806
    X68       CONSTR10  210
    X69       OBJ       912
    X69       CONSTR1   719
    X69       CONSTR2   153
    X69       CONSTR3   621
    X69       CONSTR4   229
    X69       CONSTR5   495
    X69       CONSTR6   211
    X69       CONSTR7   765
    X69       CONSTR8   418
    X69       CONSTR9   188
    X69       CONSTR10  453
    X70       OBJ       533
    X70       CONSTR1   771
    X70       CONSTR2   99
    X70       CONSTR3   494
    X70       CONSTR4   165
    X70       CONSTR5   944
    X70       CONSTR6   406
    X70       CONSTR7   216
    X70       CONSTR8   549
    X70       CONSTR9   828
    X70       CONSTR10  733
    X71       OBJ       510
    X71       CONSTR1   592
    X71       CONSTR2   325
    X71       CONSTR3   183
    X71       CONSTR4   599
    X71       CONSTR5   697
    X71       CONSTR6   160
    X71       CONSTR7   907
    X71       CONSTR8   351
    X71       CONSTR9   155
    X71       CONSTR10  405
    X72       OBJ       829
    X72       CONSTR1   161
    X72       CONSTR2   710
    X72       CONSTR3   512
    X72       CONSTR4   557
    X72       CONSTR5   316
    X72       CONSTR6   173
    X72       CONSTR7   482
    X72       CONSTR8   974
    X72       CONSTR9   600
    X72       CONSTR10  975
    X73       OBJ       939
    X73       CONSTR1   553
    X73       CONSTR2   697
    X73       CONSTR3   625
    X73       CONSTR4   805
    X73       CONSTR5   387
    X73       CONSTR6   269
    X73       CONSTR7   534
    X73       CONSTR8   765
    X73       CONSTR9   267
    X73       CONSTR10  310
    X74       OBJ       570
    X74       CONSTR1   702
    X74       CONSTR2   290
    X74       CONSTR3   377
    X74       CONSTR4   175
    X74       CONSTR5   172
    X74       CONSTR6   517
    X74       CONSTR7   391
    X74       CONSTR8   104
    X74       CONSTR9   124
    X74       CONSTR10  481
    X75       OBJ       584
    X75       CONSTR1   217
    X75       CONSTR2   139
    X75       CONSTR3   961
    X75       CONSTR4   951
    X75       CONSTR5   349
    X75       CONSTR6   296
    X75       CONSTR7   858
    X75       CONSTR8   416
    X75       CONSTR9   368
    X75       CONSTR10  585
    X76       OBJ       621
    X76       CONSTR1   706
    X76       CONSTR2   488
    X76       CONSTR3   693
    X76       CONSTR4   992
    X76       CONSTR5   894
    X76       CONSTR6   80
    X76       CONSTR7   494
    X76       CONSTR8   686
    X76       CONSTR9   483
    X76       CONSTR10  550
    X77       OBJ       790
    X77       CONSTR1   754
    X77       CONSTR2   917
    X77       CONSTR3   142
    X77       CONSTR4   209
    X77       CONSTR5   158
    X77       CONSTR6   742
    X77       CONSTR7   854
    X77       CONSTR8   381
    X77       CONSTR9   333
    X77       CONSTR10  764
    X78       OBJ       884
    X78       CONSTR1   434
    X78       CONSTR2   263
    X78       CONSTR3   889
    X78       CONSTR4   227
    X78       CONSTR5   801
    X78       CONSTR6   824
    X78       CONSTR7   881
    X78       CONSTR8   440
    X78       CONSTR9   776
    X78       CONSTR10  35
    X79       OBJ       995
    X79       CONSTR1   707
    X79       CONSTR2   444
    X79       CONSTR3   976
    X79       CONSTR4   624
    X79       CONSTR5   341
    X79       CONSTR6   176
    X79       CONSTR7   933
    X79       CONSTR8   542
    X79       CONSTR9   697
    X79       CONSTR10  976
    X80       OBJ       857
    X80       CONSTR1   333
    X80       CONSTR2   170
    X80       CONSTR3   784
    X80       CONSTR4   786
    X80       CONSTR5   599
    X80       CONSTR6   934
    X80       CONSTR7   394
    X80       CONSTR8   686
    X80       CONSTR9   142
    X80       CONSTR10  25
    X81       OBJ       606
    X81       CONSTR1   27
    X81       CONSTR2   60
    X81       CONSTR3   199
    X81       CONSTR4   953
    X81       CONSTR5   739
    X81       CONSTR6   590
    X81       CONSTR7   936
    X81       CONSTR8   547
    X81       CONSTR9   303
    X81       CONSTR10  363
    X82       OBJ       1027
    X82       CONSTR1   673
    X82       CONSTR2   700
    X82       CONSTR3   483
    X82       CONSTR4   734
    X82       CONSTR5   791
    X82       CONSTR6   752
    X82       CONSTR7   609
    X82       CONSTR8   155
    X82       CONSTR9   63
    X82       CONSTR10  996
    X83       OBJ       499
    X83       CONSTR1   942
    X83       CONSTR2   676
    X83       CONSTR3   777
    X83       CONSTR4   747
    X83       CONSTR5   35
    X83       CONSTR6   409
    X83       CONSTR7   167
    X83       CONSTR8   30
    X83       CONSTR9   97
    X83       CONSTR10  692
    X84       OBJ       763
    X84       CONSTR1   611
    X84       CONSTR2   483
    X84       CONSTR3   952
    X84       CONSTR4   600
    X84       CONSTR5   223
    X84       CONSTR6   167
    X84       CONSTR7   839
    X84       CONSTR8   883
    X84       CONSTR9   24
    X84       CONSTR10  445
    X85       OBJ       771
    X85       CONSTR1   645
    X85       CONSTR2   795
    X85       CONSTR3   318
    X85       CONSTR4   372
    X85       CONSTR5   878
    X85       CONSTR6   535
    X85       CONSTR7   813
    X85       CONSTR8   658
    X85       CONSTR9   920
    X85       CONSTR10  198
    X86       OBJ       561
    X86       CONSTR1   930
    X86       CONSTR2   100
    X86       CONSTR3   682
    X86       CONSTR4   862
    X86       CONSTR5   709
    X86       CONSTR6   807
    X86       CONSTR7   42
    X86       CONSTR8   254
    X86       CONSTR9   471
    X86       CONSTR10  405
    X87       OBJ       557
    X87       CONSTR1   68
    X87       CONSTR2   96
    X87       CONSTR3   795
    X87       CONSTR4   426
    X87       CONSTR5   269
    X87       CONSTR6   209
    X87       CONSTR7   120
    X87       CONSTR8   954
    X87       CONSTR9   9
    X87       CONSTR10  279
    X88       OBJ       627
    X88       CONSTR1   857
    X88       CONSTR2   857
    X88       CONSTR3   618
    X88       CONSTR4   345
    X88       CONSTR5   578
    X88       CONSTR6   326
    X88       CONSTR7   270
    X88       CONSTR8   531
    X88       CONSTR9   620
    X88       CONSTR10  670
    X89       OBJ       821
    X89       CONSTR1   893
    X89       CONSTR2   917
    X89       CONSTR3   714
    X89       CONSTR4   534
    X89       CONSTR5   232
    X89       CONSTR6   766
    X89       CONSTR7   677
    X89       CONSTR8   265
    X89       CONSTR9   964
    X89       CONSTR10  183
    X90       OBJ       603
    X90       CONSTR1   93
    X90       CONSTR2   183
    X90       CONSTR3   619
    X90       CONSTR4   376
    X90       CONSTR5   298
    X90       CONSTR6   797
    X90       CONSTR7   55
    X90       CONSTR8   83
    X90       CONSTR9   775
    X90       CONSTR10  772
    X91       OBJ       604
    X91       CONSTR1   901
    X91       CONSTR2   876
    X91       CONSTR3   69
    X91       CONSTR4   743
    X91       CONSTR5   902
    X91       CONSTR6   384
    X91       CONSTR7   331
    X91       CONSTR8   177
    X91       CONSTR9   56
    X91       CONSTR10  195
    X92       OBJ       821
    X92       CONSTR1   324
    X92       CONSTR2   702
    X92       CONSTR3   178
    X92       CONSTR4   254
    X92       CONSTR5   124
    X92       CONSTR6   542
    X92       CONSTR7   499
    X92       CONSTR8   295
    X92       CONSTR9   524
    X92       CONSTR10  28
    X93       OBJ       925
    X93       CONSTR1   21
    X93       CONSTR2   61
    X93       CONSTR3   373
    X93       CONSTR4   772
    X93       CONSTR5   644
    X93       CONSTR6   898
    X93       CONSTR7   333
    X93       CONSTR8   32
    X93       CONSTR9   545
    X93       CONSTR10  687
    X94       OBJ       868
    X94       CONSTR1   403
    X94       CONSTR2   664
    X94       CONSTR3   81
    X94       CONSTR4   825
    X94       CONSTR5   644
    X94       CONSTR6   468
    X94       CONSTR7   602
    X94       CONSTR8   337
    X94       CONSTR9   867
    X94       CONSTR10  426
    X95       OBJ       852
    X95       CONSTR1   334
    X95       CONSTR2   253
    X95       CONSTR3   481
    X95       CONSTR4   740
    X95       CONSTR5   884
    X95       CONSTR6   45
    X95       CONSTR7   181
    X95       CONSTR8   16
    X95       CONSTR9   232
    X95       CONSTR10  411
    X96       OBJ       721
    X96       CONSTR1   571
    X96       CONSTR2   429
    X96       CONSTR3   256
    X96       CONSTR4   800
    X96       CONSTR5   683
    X96       CONSTR6   631
    X96       CONSTR7   949
    X96       CONSTR8   526
    X96       CONSTR9   183
    X96       CONSTR10  431
    X97       OBJ       855
    X97       CONSTR1   325
    X97       CONSTR2   52
    X97       CONSTR3   586
    X97       CONSTR4   224
    X97       CONSTR5   543
    X97       CONSTR6   597
    X97       CONSTR7   995
    X97       CONSTR8   525
    X97       CONSTR9   879
    X97       CONSTR10  148
    X98       OBJ       567
    X98       CONSTR1   915
    X98       CONSTR2   783
    X98       CONSTR3   222
    X98       CONSTR4   511
    X98       CONSTR5   275
    X98       CONSTR6   658
    X98       CONSTR7   637
    X98       CONSTR8   539
    X98       CONSTR9   35
    X98       CONSTR10  141
    X99       OBJ       628
    X99       CONSTR1   456
    X99       CONSTR2   778
    X99       CONSTR3   485
    X99       CONSTR4   262
    X99       CONSTR5   871
    X99       CONSTR6   187
    X99       CONSTR7   366
    X99       CONSTR8   743
    X99       CONSTR9   689
    X99       CONSTR10  525
    X100      OBJ       681
    X100      CONSTR1   695
    X100      CONSTR2   162
    X100      CONSTR3   51
    X100      CONSTR4   118
    X100      CONSTR5   831
    X100      CONSTR6   430
    X100      CONSTR7   289
    X100      CONSTR8   949
    X100      CONSTR9   379
    X100      CONSTR10  11
    INT0001   'MARKER'  'INTEND'
RHS
    RHS10001  CONSTR1   24999
    RHS10001  CONSTR2   22947
    RHS10001  CONSTR3   23773
    RHS10001  CONSTR4   24108
    RHS10001  CONSTR5   27749
    RHS10001  CONSTR6   24234
    RHS10001  CONSTR7   25496
    RHS10001  CONSTR8   23848
    RHS10001  CONSTR9   25210
    RHS10001  CONSTR10  22644
BOUNDS
 BV BND       X1        .00
 BV BND       X2        .00
 BV BND       X3        .00
 BV BND       X4        .00
 BV BND       X5        .00
 BV BND       X6        .00
 BV BND       X7        .00
 BV BND       X8        .00
 BV BND       X9        .00
 BV BND       X10       .00
 BV BND       X11       .00
 BV BND       X12       .00
 BV BND       X13       .00
 BV BND       X14       .00
 BV BND       X15       .00
 BV BND       X16       .00
 BV BND       X17       .00
 BV BND       X18       .00
 BV BND       X19       .00
 BV BND       X20       .00
 BV BND       X21       .00
 BV BND       X22       .00
 BV BND       X23       .00
 BV BND       X24       .00
 BV BND       X25       .00
 BV BND       X26       .00
 BV BND       X27       .00
 BV BND       X28       .00
 BV BND       X29       .00
 BV BND       X30       .00
 BV BND       X31       .00
 BV BND       X32       .00
 BV BND       X33       .00
 BV BND       X34       .00
 BV BND       X35       .00
 BV BND       X36       .00
 BV BND       X37       .00
 BV BND       X38       .00
 BV BND       X39       .00
 BV BND       X40       .00
 BV BND       X41       .00
 BV BND       X42       .00
 BV BND       X43       .00
 BV BND       X44       .00
 BV BND       X45       .00
 BV BND       X46       .00
 BV BND       X47       .00
 BV BND       X48       .00
 BV BND       X49       .00
 BV BND       X50       .00
 BV BND       X51       .00
 BV BND       X52       .00
 BV BND       X53       .00
 BV BND       X54       .00
 BV BND       X55       .00
 BV BND       X56       .00
 BV BND       X57       .00
 BV BND       X58       .00
 BV BND       X59       .00
 BV BND       X60       .00
 BV BND       X61       .00
 BV BND       X62       .00
 BV BND       X63       .00
 BV BND       X64       .00
 BV BND       X65       .00
 BV BND       X66       .00
 BV BND       X67       .00
 BV BND       X68       .00
 BV BND       X69       .00
 BV BND       X70       .00
 BV BND       X71       .00
 BV BND       X72       .00
 BV BND       X73       .00
 BV BND       X74       .00
 BV BND       X75       .00
 BV BND       X76       .00
 BV BND       X77       .00
 BV BND       X78       .00
 BV BND       X79       .00
 BV BND       X80       .00
 BV BND       X81       .00
 BV BND       X82       .00
 BV BND       X83       .00
 BV BND       X84       .00
 BV BND       X85       .00
 BV BND       X86       .00
 BV BND       X87       .00
 BV BND       X88       .00
 BV BND       X89       .00
 BV BND       X90       .00
 BV BND       X91       .00
 BV BND       X92       .00
 BV BND       X93       .00
 BV BND       X94       .00
 BV BND       X95       .00
 BV BND       X96       .00
 BV BND       X97       .00
 BV BND       X98       .00
 BV BND       X99       .00
 BV BND       X100      .00
ENDATA
